ACTORES = { Actor1 , Actor2 , Actor3 , Actor4 } ;

Escenas =[| 1, 1, 0, 1, 0, 10      % Actor 1
          | 1, 0, 1, 0, 0, 4       % Actor 2
          | 0, 1, 1, 0, 1, 5       % Actor 3
          | 0, 0, 0, 0, 0, 5 |] ;  % Actor 4
          
Duracion= [ 2, 4, 1, 3, 7 ] ;